450,-48
741,406
738,424
769,527
649,613
504,753
746,820
716,454
718,643
764,662
737,761
148,322
178,327
141,406
178,327
536,511
441,528
536,511
622,415
738,424
690,347
681,46
450,-48
317,142
482,470
741,406
201,406
593,285
766,433
963,794
810,805
746,820
718,643
563,424
561,406
536,301
563,424
622,415
448,173
751,-38
829,-50
999,88
1066,345
829,-50
841,325
1137,258
789,193
829,-50
789,193
593,285
